c File: data_files/evolved_graphs/g3844.col
c
c Auto generated graph
c
p edge 100 1958
e 1 3
e 1 4
e 1 6
e 1 27
e 1 33
e 1 62
e 1 63
e 1 66
e 1 93
e 1 100
e 2 5
e 2 6
e 2 7
e 2 10
e 2 17
e 2 42
e 2 50
e 2 66
e 2 75
e 2 80
e 2 90
e 3 5
e 3 6
e 3 21
e 3 31
e 3 84
e 3 87
e 3 99
e 4 5
e 4 7
e 4 16
e 4 44
e 4 46
e 4 57
e 5 7
e 5 19
e 5 30
e 5 55
e 5 66
e 5 78
e 5 85
e 5 94
e 5 100
e 6 7
e 6 12
e 6 33
e 6 55
e 6 57
e 6 60
e 7 26
e 7 49
e 7 54
e 7 63
e 7 65
e 7 81
e 7 90
e 7 94
e 8 9
e 8 12
e 8 13
e 8 14
e 8 16
e 8 19
e 8 21
e 8 22
e 8 25
e 8 27
e 8 29
e 8 30
e 8 31
e 8 33
e 8 34
e 8 36
e 8 38
e 8 42
e 8 45
e 8 46
e 8 47
e 8 48
e 8 50
e 8 53
e 8 54
e 8 55
e 8 56
e 8 58
e 8 62
e 8 63
e 8 64
e 8 65
e 8 67
e 8 68
e 8 74
e 8 77
e 8 78
e 8 81
e 8 82
e 8 83
e 8 84
e 8 85
e 8 88
e 8 89
e 8 97
e 9 13
e 9 16
e 9 17
e 9 19
e 9 22
e 9 23
e 9 25
e 9 26
e 9 27
e 9 30
e 9 35
e 9 36
e 9 41
e 9 44
e 9 46
e 9 49
e 9 51
e 9 52
e 9 53
e 9 56
e 9 59
e 9 64
e 9 68
e 9 69
e 9 73
e 9 80
e 9 84
e 9 88
e 9 94
e 9 99
e 9 100
e 10 12
e 10 13
e 10 15
e 10 16
e 10 17
e 10 18
e 10 20
e 10 21
e 10 23
e 10 25
e 10 26
e 10 27
e 10 30
e 10 32
e 10 33
e 10 34
e 10 35
e 10 42
e 10 48
e 10 49
e 10 50
e 10 53
e 10 56
e 10 61
e 10 62
e 10 66
e 10 68
e 10 69
e 10 71
e 10 73
e 10 76
e 10 78
e 10 82
e 10 83
e 10 85
e 10 86
e 10 88
e 10 89
e 10 98
e 10 100
e 11 16
e 11 17
e 11 21
e 11 22
e 11 23
e 11 24
e 11 26
e 11 34
e 11 39
e 11 42
e 11 43
e 11 51
e 11 52
e 11 53
e 11 63
e 11 65
e 11 73
e 11 75
e 11 76
e 11 78
e 11 80
e 11 82
e 11 87
e 11 93
e 11 95
e 11 96
e 11 97
e 12 13
e 12 14
e 12 17
e 12 19
e 12 22
e 12 26
e 12 27
e 12 30
e 12 31
e 12 33
e 12 35
e 12 38
e 12 39
e 12 41
e 12 43
e 12 45
e 12 47
e 12 57
e 12 58
e 12 59
e 12 60
e 12 61
e 12 70
e 12 72
e 12 76
e 12 77
e 12 78
e 12 85
e 12 87
e 12 88
e 12 91
e 12 96
e 12 99
e 13 14
e 13 15
e 13 16
e 13 20
e 13 23
e 13 24
e 13 25
e 13 27
e 13 29
e 13 30
e 13 31
e 13 35
e 13 37
e 13 39
e 13 40
e 13 42
e 13 43
e 13 46
e 13 47
e 13 51
e 13 57
e 13 60
e 13 61
e 13 64
e 13 66
e 13 68
e 13 69
e 13 70
e 13 71
e 13 76
e 13 77
e 13 78
e 13 79
e 13 80
e 13 86
e 13 88
e 13 89
e 13 91
e 13 96
e 13 99
e 14 16
e 14 18
e 14 19
e 14 21
e 14 23
e 14 25
e 14 26
e 14 27
e 14 28
e 14 29
e 14 30
e 14 32
e 14 33
e 14 35
e 14 38
e 14 42
e 14 43
e 14 48
e 14 54
e 14 57
e 14 59
e 14 62
e 14 68
e 14 70
e 14 71
e 14 73
e 14 74
e 14 75
e 14 76
e 14 77
e 14 79
e 14 82
e 14 83
e 14 86
e 14 87
e 14 88
e 14 91
e 14 92
e 14 94
e 14 95
e 14 99
e 14 100
e 15 16
e 15 17
e 15 18
e 15 19
e 15 20
e 15 21
e 15 22
e 15 24
e 15 26
e 15 27
e 15 28
e 15 29
e 15 30
e 15 36
e 15 40
e 15 43
e 15 47
e 15 50
e 15 57
e 15 58
e 15 60
e 15 62
e 15 70
e 15 72
e 15 75
e 15 77
e 15 88
e 15 91
e 16 20
e 16 21
e 16 22
e 16 24
e 16 25
e 16 26
e 16 27
e 16 28
e 16 34
e 16 36
e 16 38
e 16 39
e 16 40
e 16 42
e 16 46
e 16 47
e 16 48
e 16 52
e 16 53
e 16 54
e 16 55
e 16 57
e 16 62
e 16 63
e 16 64
e 16 69
e 16 71
e 16 77
e 16 82
e 16 86
e 16 88
e 16 90
e 16 92
e 16 96
e 16 99
e 17 18
e 17 20
e 17 21
e 17 23
e 17 25
e 17 28
e 17 30
e 17 31
e 17 33
e 17 38
e 17 40
e 17 43
e 17 44
e 17 47
e 17 48
e 17 49
e 17 50
e 17 53
e 17 54
e 17 58
e 17 59
e 17 60
e 17 62
e 17 67
e 17 70
e 17 81
e 17 82
e 17 85
e 17 88
e 17 91
e 17 95
e 17 99
e 18 19
e 18 21
e 18 23
e 18 25
e 18 28
e 18 31
e 18 34
e 18 38
e 18 43
e 18 45
e 18 48
e 18 50
e 18 52
e 18 57
e 18 59
e 18 61
e 18 62
e 18 66
e 18 67
e 18 70
e 18 71
e 18 74
e 18 77
e 18 78
e 18 81
e 18 84
e 18 87
e 18 88
e 18 89
e 18 90
e 18 94
e 18 98
e 18 99
e 18 100
e 19 20
e 19 21
e 19 22
e 19 28
e 19 30
e 19 32
e 19 40
e 19 42
e 19 48
e 19 49
e 19 53
e 19 55
e 19 60
e 19 61
e 19 77
e 19 84
e 19 86
e 19 87
e 19 88
e 19 89
e 19 92
e 19 96
e 19 99
e 20 21
e 20 26
e 20 28
e 20 30
e 20 33
e 20 38
e 20 39
e 20 43
e 20 45
e 20 48
e 20 50
e 20 52
e 20 53
e 20 57
e 20 60
e 20 64
e 20 66
e 20 69
e 20 71
e 20 72
e 20 74
e 20 76
e 20 82
e 20 83
e 20 89
e 20 92
e 21 25
e 21 26
e 21 27
e 21 28
e 21 30
e 21 34
e 21 36
e 21 37
e 21 39
e 21 51
e 21 52
e 21 53
e 21 55
e 21 56
e 21 57
e 21 58
e 21 59
e 21 63
e 21 65
e 21 66
e 21 67
e 21 69
e 21 72
e 21 74
e 21 76
e 21 78
e 21 79
e 21 80
e 21 83
e 21 86
e 21 89
e 21 92
e 21 93
e 21 95
e 22 25
e 22 29
e 22 31
e 22 32
e 22 36
e 22 38
e 22 40
e 22 45
e 22 46
e 22 65
e 22 68
e 22 73
e 22 78
e 22 79
e 22 83
e 22 93
e 22 95
e 22 97
e 22 98
e 22 99
e 23 24
e 23 25
e 23 26
e 23 27
e 23 31
e 23 32
e 23 34
e 23 38
e 23 46
e 23 47
e 23 48
e 23 49
e 23 53
e 23 57
e 23 60
e 23 61
e 23 63
e 23 69
e 23 71
e 23 74
e 23 78
e 23 81
e 23 84
e 23 85
e 23 88
e 23 93
e 23 94
e 23 96
e 24 25
e 24 28
e 24 31
e 24 33
e 24 36
e 24 40
e 24 42
e 24 43
e 24 45
e 24 52
e 24 53
e 24 54
e 24 55
e 24 68
e 24 70
e 24 71
e 24 73
e 24 77
e 24 78
e 24 79
e 24 87
e 24 88
e 24 92
e 24 97
e 24 98
e 24 99
e 25 26
e 25 28
e 25 30
e 25 34
e 25 39
e 25 40
e 25 45
e 25 49
e 25 50
e 25 55
e 25 56
e 25 60
e 25 63
e 25 69
e 25 70
e 25 73
e 25 79
e 25 82
e 25 83
e 25 86
e 25 94
e 26 27
e 26 29
e 26 41
e 26 43
e 26 46
e 26 47
e 26 48
e 26 54
e 26 59
e 26 62
e 26 65
e 26 66
e 26 67
e 26 69
e 26 72
e 26 76
e 26 78
e 26 88
e 26 90
e 26 94
e 26 95
e 26 98
e 26 99
e 27 29
e 27 35
e 27 38
e 27 39
e 27 41
e 27 44
e 27 47
e 27 49
e 27 52
e 27 53
e 27 54
e 27 57
e 27 61
e 27 62
e 27 66
e 27 70
e 27 75
e 27 77
e 27 78
e 27 80
e 27 83
e 27 92
e 27 93
e 27 94
e 28 29
e 28 34
e 28 35
e 28 43
e 28 49
e 28 50
e 28 53
e 28 55
e 28 56
e 28 59
e 28 60
e 28 61
e 28 62
e 28 71
e 28 74
e 28 79
e 28 81
e 28 84
e 28 85
e 28 86
e 28 87
e 28 91
e 28 92
e 28 93
e 28 98
e 28 100
e 29 32
e 29 39
e 29 43
e 29 44
e 29 51
e 29 53
e 29 57
e 29 58
e 29 64
e 29 67
e 29 69
e 29 71
e 29 77
e 29 78
e 29 79
e 29 83
e 29 94
e 29 95
e 29 96
e 29 97
e 29 98
e 30 31
e 30 34
e 30 38
e 30 40
e 30 42
e 30 43
e 30 44
e 30 45
e 30 47
e 30 48
e 30 49
e 30 50
e 30 55
e 30 56
e 30 57
e 30 64
e 30 68
e 30 69
e 30 72
e 30 73
e 30 75
e 30 79
e 30 81
e 30 84
e 30 89
e 30 92
e 30 93
e 30 94
e 30 97
e 30 99
e 30 100
e 31 35
e 31 41
e 31 47
e 31 48
e 31 50
e 31 54
e 31 57
e 31 61
e 31 62
e 31 63
e 31 64
e 31 67
e 31 68
e 31 69
e 31 76
e 31 81
e 31 84
e 31 88
e 31 90
e 31 94
e 31 96
e 31 97
e 31 98
e 32 33
e 32 34
e 32 36
e 32 37
e 32 38
e 32 43
e 32 44
e 32 46
e 32 47
e 32 52
e 32 55
e 32 57
e 32 58
e 32 59
e 32 61
e 32 63
e 32 67
e 32 73
e 32 74
e 32 76
e 32 78
e 32 80
e 32 81
e 32 82
e 32 83
e 32 84
e 32 85
e 32 86
e 32 88
e 32 89
e 32 91
e 32 92
e 32 93
e 32 94
e 32 95
e 32 96
e 32 99
e 33 34
e 33 35
e 33 36
e 33 43
e 33 44
e 33 48
e 33 51
e 33 53
e 33 59
e 33 61
e 33 64
e 33 66
e 33 67
e 33 68
e 33 72
e 33 73
e 33 74
e 33 75
e 33 76
e 33 78
e 33 79
e 33 80
e 33 81
e 33 82
e 33 84
e 33 85
e 33 89
e 33 93
e 33 95
e 33 97
e 33 98
e 33 99
e 33 100
e 34 36
e 34 37
e 34 38
e 34 40
e 34 44
e 34 47
e 34 48
e 34 49
e 34 50
e 34 53
e 34 54
e 34 55
e 34 57
e 34 63
e 34 64
e 34 67
e 34 69
e 34 72
e 34 75
e 34 76
e 34 77
e 34 80
e 34 83
e 34 84
e 34 85
e 34 86
e 34 91
e 34 92
e 34 93
e 34 94
e 34 97
e 34 100
e 35 36
e 35 39
e 35 42
e 35 43
e 35 44
e 35 46
e 35 47
e 35 48
e 35 49
e 35 51
e 35 58
e 35 59
e 35 61
e 35 66
e 35 67
e 35 69
e 35 70
e 35 74
e 35 77
e 35 80
e 35 81
e 35 83
e 35 85
e 35 86
e 35 87
e 35 88
e 35 89
e 35 90
e 35 91
e 35 93
e 35 94
e 35 95
e 35 99
e 35 100
e 36 38
e 36 40
e 36 41
e 36 46
e 36 47
e 36 48
e 36 51
e 36 52
e 36 55
e 36 56
e 36 58
e 36 59
e 36 61
e 36 66
e 36 68
e 36 70
e 36 72
e 36 77
e 36 78
e 36 81
e 36 85
e 36 86
e 36 87
e 36 93
e 36 94
e 36 95
e 36 96
e 36 99
e 37 38
e 37 39
e 37 41
e 37 42
e 37 44
e 37 45
e 37 47
e 37 49
e 37 55
e 37 57
e 37 60
e 37 61
e 37 65
e 37 66
e 37 68
e 37 70
e 37 73
e 37 74
e 37 75
e 37 80
e 37 82
e 37 84
e 37 86
e 37 89
e 37 91
e 37 93
e 37 95
e 37 96
e 37 97
e 37 99
e 37 100
e 38 40
e 38 43
e 38 44
e 38 45
e 38 49
e 38 50
e 38 51
e 38 53
e 38 55
e 38 58
e 38 60
e 38 61
e 38 66
e 38 67
e 38 69
e 38 70
e 38 71
e 38 72
e 38 75
e 38 76
e 38 77
e 38 78
e 38 79
e 38 81
e 38 83
e 38 88
e 38 95
e 38 96
e 38 97
e 38 98
e 38 100
e 39 41
e 39 42
e 39 43
e 39 44
e 39 46
e 39 48
e 39 49
e 39 50
e 39 51
e 39 52
e 39 53
e 39 56
e 39 57
e 39 58
e 39 60
e 39 61
e 39 62
e 39 63
e 39 64
e 39 65
e 39 68
e 39 69
e 39 72
e 39 75
e 39 76
e 39 80
e 39 81
e 39 84
e 39 86
e 39 88
e 39 89
e 39 90
e 39 91
e 39 94
e 39 95
e 39 96
e 40 41
e 40 42
e 40 45
e 40 46
e 40 47
e 40 49
e 40 52
e 40 53
e 40 54
e 40 55
e 40 57
e 40 58
e 40 60
e 40 61
e 40 63
e 40 64
e 40 66
e 40 67
e 40 68
e 40 69
e 40 70
e 40 76
e 40 77
e 40 78
e 40 79
e 40 80
e 40 84
e 40 87
e 40 89
e 40 94
e 40 95
e 40 98
e 40 99
e 41 43
e 41 44
e 41 46
e 41 48
e 41 50
e 41 51
e 41 54
e 41 55
e 41 59
e 41 60
e 41 65
e 41 67
e 41 69
e 41 70
e 41 71
e 41 72
e 41 75
e 41 77
e 41 79
e 41 87
e 41 89
e 41 91
e 41 92
e 41 94
e 41 99
e 42 43
e 42 54
e 42 59
e 42 60
e 42 62
e 42 65
e 42 67
e 42 71
e 42 73
e 42 77
e 42 80
e 42 83
e 42 84
e 42 85
e 42 88
e 42 89
e 42 90
e 42 93
e 42 94
e 42 95
e 42 97
e 42 98
e 43 44
e 43 45
e 43 46
e 43 47
e 43 48
e 43 55
e 43 56
e 43 57
e 43 59
e 43 60
e 43 61
e 43 62
e 43 64
e 43 66
e 43 69
e 43 70
e 43 72
e 43 74
e 43 75
e 43 80
e 43 81
e 43 82
e 43 84
e 43 85
e 43 88
e 43 89
e 43 93
e 43 94
e 43 99
e 44 46
e 44 49
e 44 50
e 44 52
e 44 53
e 44 54
e 44 56
e 44 57
e 44 59
e 44 60
e 44 61
e 44 62
e 44 63
e 44 66
e 44 67
e 44 71
e 44 73
e 44 76
e 44 78
e 44 79
e 44 80
e 44 82
e 44 83
e 44 85
e 44 87
e 44 89
e 44 90
e 44 91
e 44 93
e 44 94
e 44 95
e 44 96
e 44 98
e 45 48
e 45 49
e 45 51
e 45 53
e 45 54
e 45 55
e 45 57
e 45 60
e 45 62
e 45 63
e 45 64
e 45 67
e 45 71
e 45 72
e 45 74
e 45 78
e 45 79
e 45 84
e 45 85
e 45 90
e 45 91
e 45 96
e 45 98
e 45 99
e 46 48
e 46 49
e 46 51
e 46 52
e 46 54
e 46 58
e 46 63
e 46 67
e 46 70
e 46 72
e 46 75
e 46 76
e 46 77
e 46 79
e 46 80
e 46 81
e 46 82
e 46 83
e 46 84
e 46 85
e 46 87
e 46 88
e 46 89
e 46 93
e 46 94
e 46 98
e 46 99
e 46 100
e 47 49
e 47 50
e 47 51
e 47 53
e 47 55
e 47 56
e 47 58
e 47 63
e 47 65
e 47 67
e 47 68
e 47 70
e 47 71
e 47 73
e 47 75
e 47 79
e 47 80
e 47 81
e 47 82
e 47 84
e 47 86
e 47 87
e 47 88
e 47 89
e 47 91
e 47 93
e 47 95
e 47 96
e 47 97
e 47 98
e 48 52
e 48 54
e 48 55
e 48 57
e 48 58
e 48 59
e 48 62
e 48 64
e 48 66
e 48 68
e 48 69
e 48 70
e 48 72
e 48 73
e 48 74
e 48 76
e 48 77
e 48 85
e 48 88
e 48 90
e 48 91
e 48 93
e 48 94
e 48 99
e 49 50
e 49 53
e 49 54
e 49 55
e 49 57
e 49 58
e 49 60
e 49 62
e 49 64
e 49 66
e 49 68
e 49 72
e 49 73
e 49 74
e 49 75
e 49 79
e 49 86
e 49 87
e 49 89
e 49 92
e 49 96
e 49 99
e 49 100
e 50 51
e 50 59
e 50 60
e 50 62
e 50 64
e 50 65
e 50 66
e 50 67
e 50 69
e 50 73
e 50 74
e 50 75
e 50 78
e 50 80
e 50 81
e 50 83
e 50 84
e 50 85
e 50 89
e 50 90
e 50 91
e 50 94
e 50 95
e 50 96
e 50 99
e 51 53
e 51 54
e 51 55
e 51 56
e 51 57
e 51 58
e 51 59
e 51 60
e 51 62
e 51 63
e 51 64
e 51 65
e 51 70
e 51 78
e 51 81
e 51 82
e 51 83
e 51 84
e 51 87
e 51 88
e 51 89
e 51 92
e 51 93
e 51 95
e 51 96
e 51 98
e 51 99
e 52 53
e 52 54
e 52 56
e 52 57
e 52 58
e 52 59
e 52 61
e 52 65
e 52 66
e 52 70
e 52 73
e 52 76
e 52 78
e 52 79
e 52 80
e 52 82
e 52 84
e 52 85
e 52 86
e 52 89
e 52 90
e 52 91
e 52 92
e 52 94
e 52 96
e 52 97
e 52 100
e 53 54
e 53 56
e 53 57
e 53 58
e 53 60
e 53 63
e 53 64
e 53 67
e 53 68
e 53 69
e 53 73
e 53 75
e 53 76
e 53 77
e 53 78
e 53 82
e 53 86
e 53 87
e 53 88
e 53 91
e 53 94
e 53 96
e 53 98
e 53 99
e 54 56
e 54 57
e 54 58
e 54 60
e 54 61
e 54 62
e 54 66
e 54 67
e 54 68
e 54 70
e 54 74
e 54 75
e 54 76
e 54 77
e 54 79
e 54 80
e 54 84
e 54 86
e 54 89
e 54 91
e 54 92
e 54 93
e 54 95
e 54 96
e 54 97
e 54 99
e 55 57
e 55 59
e 55 62
e 55 65
e 55 66
e 55 68
e 55 69
e 55 70
e 55 71
e 55 72
e 55 73
e 55 74
e 55 75
e 55 77
e 55 78
e 55 79
e 55 80
e 55 81
e 55 87
e 55 89
e 55 90
e 55 92
e 55 96
e 55 97
e 55 100
e 56 58
e 56 60
e 56 61
e 56 63
e 56 66
e 56 67
e 56 69
e 56 78
e 56 80
e 56 85
e 56 86
e 56 87
e 56 88
e 56 92
e 56 93
e 56 96
e 56 98
e 56 99
e 57 61
e 57 62
e 57 64
e 57 67
e 57 69
e 57 73
e 57 76
e 57 78
e 57 79
e 57 81
e 57 85
e 57 88
e 57 92
e 57 93
e 57 97
e 58 59
e 58 62
e 58 63
e 58 66
e 58 70
e 58 72
e 58 73
e 58 75
e 58 76
e 58 77
e 58 83
e 58 86
e 58 87
e 58 88
e 58 89
e 58 91
e 58 94
e 58 96
e 58 97
e 58 98
e 58 99
e 58 100
e 59 60
e 59 63
e 59 64
e 59 65
e 59 71
e 59 72
e 59 73
e 59 74
e 59 75
e 59 76
e 59 77
e 59 78
e 59 81
e 59 84
e 59 85
e 59 88
e 59 89
e 59 90
e 59 91
e 59 92
e 59 93
e 59 96
e 59 97
e 59 99
e 60 61
e 60 62
e 60 63
e 60 67
e 60 69
e 60 73
e 60 75
e 60 76
e 60 77
e 60 80
e 60 82
e 60 89
e 60 90
e 60 92
e 60 93
e 60 97
e 60 99
e 61 62
e 61 64
e 61 65
e 61 68
e 61 70
e 61 71
e 61 74
e 61 76
e 61 77
e 61 78
e 61 79
e 61 82
e 61 83
e 61 84
e 61 85
e 61 86
e 61 92
e 61 93
e 61 95
e 61 96
e 61 99
e 61 100
e 62 63
e 62 64
e 62 65
e 62 66
e 62 67
e 62 68
e 62 70
e 62 72
e 62 73
e 62 74
e 62 75
e 62 77
e 62 79
e 62 81
e 62 82
e 62 83
e 62 88
e 62 91
e 62 94
e 62 95
e 62 96
e 62 97
e 62 98
e 62 100
e 63 64
e 63 65
e 63 68
e 63 71
e 63 73
e 63 74
e 63 75
e 63 76
e 63 77
e 63 78
e 63 83
e 63 84
e 63 85
e 63 86
e 63 88
e 63 89
e 63 90
e 63 91
e 63 92
e 63 98
e 64 67
e 64 71
e 64 72
e 64 79
e 64 80
e 64 84
e 64 85
e 64 87
e 64 88
e 64 92
e 64 98
e 64 99
e 65 68
e 65 71
e 65 73
e 65 74
e 65 76
e 65 78
e 65 79
e 65 80
e 65 83
e 65 84
e 65 85
e 65 86
e 65 87
e 65 88
e 65 89
e 65 92
e 65 94
e 65 96
e 65 97
e 65 98
e 65 100
e 66 67
e 66 68
e 66 70
e 66 72
e 66 75
e 66 77
e 66 79
e 66 81
e 66 85
e 66 86
e 66 87
e 66 88
e 66 89
e 66 91
e 66 95
e 66 96
e 66 97
e 67 68
e 67 75
e 67 76
e 67 80
e 67 81
e 67 82
e 67 83
e 67 84
e 67 85
e 67 87
e 67 88
e 67 91
e 67 92
e 67 93
e 67 94
e 68 69
e 68 71
e 68 75
e 68 77
e 68 78
e 68 80
e 68 81
e 68 82
e 68 84
e 68 86
e 68 88
e 68 89
e 68 90
e 68 95
e 68 96
e 69 70
e 69 73
e 69 74
e 69 77
e 69 78
e 69 80
e 69 81
e 69 82
e 69 84
e 69 85
e 69 88
e 69 92
e 69 93
e 69 94
e 69 100
e 70 71
e 70 73
e 70 74
e 70 75
e 70 78
e 70 81
e 70 84
e 70 85
e 70 86
e 70 87
e 70 90
e 70 91
e 70 92
e 70 95
e 70 96
e 70 97
e 70 100
e 71 73
e 71 76
e 71 80
e 71 81
e 71 83
e 71 84
e 71 88
e 71 89
e 71 90
e 71 95
e 71 97
e 71 100
e 72 73
e 72 74
e 72 75
e 72 76
e 72 77
e 72 79
e 72 82
e 72 83
e 72 85
e 72 86
e 72 87
e 72 89
e 72 91
e 72 93
e 72 94
e 72 95
e 72 96
e 72 97
e 72 99
e 72 100
e 73 74
e 73 75
e 73 76
e 73 77
e 73 78
e 73 80
e 73 81
e 73 82
e 73 83
e 73 84
e 73 86
e 73 88
e 73 90
e 73 91
e 73 94
e 73 97
e 73 100
e 74 75
e 74 76
e 74 77
e 74 78
e 74 85
e 74 86
e 74 87
e 74 90
e 74 91
e 74 95
e 74 96
e 74 99
e 74 100
e 75 76
e 75 77
e 75 79
e 75 81
e 75 82
e 75 83
e 75 85
e 75 87
e 75 89
e 75 91
e 75 93
e 75 94
e 75 96
e 75 97
e 75 100
e 76 78
e 76 79
e 76 81
e 76 82
e 76 87
e 76 89
e 76 92
e 76 93
e 76 95
e 76 98
e 76 99
e 76 100
e 77 78
e 77 81
e 77 82
e 77 84
e 77 85
e 77 86
e 77 88
e 77 89
e 77 90
e 77 92
e 77 93
e 77 94
e 77 95
e 77 96
e 77 98
e 77 100
e 78 80
e 78 81
e 78 82
e 78 83
e 78 85
e 78 88
e 78 90
e 78 91
e 78 93
e 78 95
e 79 81
e 79 82
e 79 84
e 79 89
e 79 90
e 79 91
e 79 92
e 79 95
e 79 97
e 79 98
e 79 99
e 80 82
e 80 83
e 80 86
e 80 87
e 80 88
e 80 90
e 80 91
e 80 92
e 80 95
e 80 96
e 80 97
e 80 99
e 80 100
e 81 87
e 81 88
e 81 92
e 81 93
e 81 99
e 82 85
e 82 87
e 82 89
e 82 90
e 82 91
e 82 94
e 82 95
e 82 96
e 82 100
e 83 84
e 83 86
e 83 87
e 83 88
e 83 89
e 83 91
e 83 92
e 83 93
e 83 94
e 83 95
e 83 96
e 83 98
e 83 100
e 84 85
e 84 87
e 84 88
e 84 90
e 84 94
e 84 96
e 84 97
e 84 100
e 85 86
e 85 87
e 85 88
e 85 89
e 85 90
e 85 92
e 85 93
e 85 94
e 85 95
e 85 100
e 86 92
e 86 94
e 86 98
e 86 99
e 86 100
e 87 88
e 87 89
e 87 90
e 87 94
e 87 97
e 88 90
e 88 92
e 88 93
e 88 96
e 88 100
e 89 90
e 89 91
e 89 92
e 89 94
e 89 100
e 90 93
e 90 94
e 90 95
e 90 97
e 90 99
e 90 100
e 91 92
e 91 93
e 91 94
e 91 95
e 91 99
e 92 93
e 92 98
e 92 99
e 93 95
e 93 97
e 93 99
e 94 99
e 96 98
e 96 99
e 97 98
e 97 100
e 98 100
